diamond
1
3.670000     0.200000     0.200000
0.200000     3.670000     0.200000
0.100000     0.200000     3.770000
C
8
Direct
0.000000     0.000000     0.000000      
0.000000     0.500000     0.500000      
0.500000     0.000000     0.500000      
0.500000     0.500000     0.000000      
0.250000     0.250000     0.250000      
0.250000     0.750000     0.750000      
0.750000     0.250000     0.750000      
0.750000     0.750000     0.250000      
