diamond
1
3.470000     0.100000     0.100000
-0.100000     3.670000     -0.100000
-0.100000     -0.100000     3.470000
C
8
Direct
0.000000     0.000000     0.000000      
0.000000     0.500000     0.500000      
0.500000     0.000000     0.500000      
0.500000     0.500000     0.000000      
0.250000     0.250000     0.250000      
0.250000     0.750000     0.750000      
0.750000     0.250000     0.750000      
0.750000     0.750000     0.250000      
